========================================================== 
File name: C:\DEGR\assets\definitions\MSRCPSP_Gen\100_40_512_5_D.def
Creation date: Wed May 03 10:44:04 CEST 2023
Website: http://imopse.ii.pwr.edu.pl/ 
Reference: 
Myszkowski P. B., Skowronski M. E., Olech L., Oslizlo K., 
Hybrid Ant Colony Optimization in solving Multi-Skill Resource-Constrained Project Scheduling Problem, 
Soft Computing, DOI: DOI 10.1007/s00500-014-1455-x 
========================================================== 
General characteristics: 
Tasks: 100
Resources: 40
Precedence relations: 483
Number of skill types: 5
========================================================== 
ResourceID 	 Salary 	 Skills 
1	 	 	61.0	 	 Q1: 1 	 
2	 	 	38.4	 	 Q3: 2 	  Q2: 3 	  Q0: 1 	  Q4: 0 	 
3	 	 	68.5	 	 Q1: 2 	  Q3: 0 	  Q4: 3 	  Q0: 0 	 
4	 	 	89.0	 	 Q1: 3 	 
5	 	 	10.4	 	 Q2: 0 	 
6	 	 	43.8	 	 Q1: 2 	  Q3: 2 	  Q4: 2 	 
7	 	 	68.8	 	 Q4: 0 	  Q2: 3 	 
8	 	 	83.8	 	 Q0: 3 	 
9	 	 	91.0	 	 Q4: 0 	  Q1: 3 	  Q2: 1 	 
10	 	 	72.0	 	 Q4: 0 	 
11	 	 	69.6	 	 Q1: 0 	 
12	 	 	24.0	 	 Q0: 2 	 
13	 	 	58.7	 	 Q1: 1 	  Q0: 1 	  Q3: 0 	 
14	 	 	93.2	 	 Q1: 1 	  Q3: 3 	  Q4: 2 	  Q2: 1 	 
15	 	 	35.3	 	 Q3: 0 	  Q4: 0 	  Q1: 3 	 
16	 	 	81.8	 	 Q2: 1 	 
17	 	 	69.0	 	 Q0: 1 	  Q1: 0 	  Q4: 3 	  Q3: 0 	 
18	 	 	21.8	 	 Q4: 0 	  Q1: 1 	  Q0: 1 	  Q3: 2 	 
19	 	 	14.4	 	 Q3: 1 	  Q4: 0 	  Q1: 1 	  Q2: 3 	 
20	 	 	82.6	 	 Q0: 1 	  Q1: 0 	  Q3: 3 	  Q2: 1 	 
21	 	 	62.3	 	 Q2: 3 	  Q0: 0 	  Q1: 3 	  Q4: 1 	 
22	 	 	35.0	 	 Q0: 3 	 
23	 	 	22.5	 	 Q3: 2 	 
24	 	 	34.8	 	 Q3: 3 	  Q0: 0 	 
25	 	 	77.1	 	 Q0: 3 	  Q3: 1 	  Q4: 1 	  Q1: 1 	 
26	 	 	88.1	 	 Q3: 0 	  Q4: 0 	  Q1: 2 	 
27	 	 	15.3	 	 Q4: 1 	  Q3: 1 	  Q0: 3 	  Q1: 3 	 
28	 	 	12.5	 	 Q1: 1 	 
29	 	 	16.3	 	 Q2: 3 	  Q1: 2 	  Q4: 1 	 
30	 	 	60.1	 	 Q3: 1 	  Q0: 0 	 
31	 	 	61.9	 	 Q2: 3 	 
32	 	 	10.1	 	 Q1: 3 	  Q3: 3 	  Q0: 1 	  Q4: 2 	 
33	 	 	68.8	 	 Q2: 1 	 
34	 	 	55.5	 	 Q3: 0 	  Q0: 1 	  Q4: 2 	  Q2: 3 	 
35	 	 	67.0	 	 Q1: 2 	  Q4: 0 	 
36	 	 	84.2	 	 Q1: 0 	 
37	 	 	21.6	 	 Q3: 0 	 
38	 	 	44.9	 	 Q1: 3 	  Q2: 3 	  Q0: 3 	 
39	 	 	49.9	 	 Q2: 1 	  Q4: 3 	  Q1: 3 	  Q0: 1 	 
40	 	 	58.9	 	 Q2: 3 	  Q4: 3 	  Q1: 0 	  Q0: 1 	 
========================================================== 
TaskID 	 Duration 	 Skill 	 Predecessor IDs 
1	14	Q4:	2
2	29	Q0:	1
3	29	Q1:	3
4	20	Q3:	0
5	11	Q1:	2
6	9	Q1:	3
7	19	Q1:	2	6
8	16	Q1:	2
9	19	Q1:	0	3	6
10	28	Q4:	0
11	35	Q1:	1
12	27	Q0:	1
13	26	Q3:	1	11	10
14	13	Q1:	1	10
15	29	Q4:	1	5	1	3
16	38	Q0:	2	1	8
17	14	Q4:	2	9	7
18	23	Q2:	1
19	28	Q0:	3	16	12
20	34	Q4:	3	5	15
21	13	Q1:	0	12	9	8
22	31	Q1:	3	18	19	17
23	11	Q4:	0	4
24	9	Q2:	0	6	22
25	40	Q4:	1	12	7
26	40	Q3:	1	25	24	16	6
27	22	Q3:	1	4
28	33	Q2:	1
29	18	Q1:	3	7
30	18	Q0:	1	26	13	3
31	10	Q1:	1	15	13	1	23	22
32	21	Q2:	3	16	11
33	40	Q4:	1	28	13	4
34	39	Q0:	0	26	7
35	18	Q2:	3	7	16	31
36	12	Q0:	1	34	10	5	13
37	12	Q4:	3	7
38	16	Q1:	0	23	11	12	34
39	13	Q0:	1	24	22	21	9
40	28	Q3:	2	23	10	12
41	20	Q1:	0	24	27	18
42	20	Q1:	3	16	9	38	11	23	28
43	19	Q0:	3	15	7	33	28	29
44	26	Q4:	0	36	18
45	38	Q0:	0	11	24	14	27	43
46	27	Q3:	0	9	25	12	40	38
47	28	Q4:	1	27	20	1	32	25	4	2
48	29	Q4:	3	14	26	38	42	29	33
49	17	Q1:	2	44	20	43	22	26	3	47
50	21	Q3:	3	49	12	47	48	29	1
51	10	Q4:	0	47	48	44	41	28
52	39	Q0:	1	25	37	27	2	30	29
53	21	Q3:	3	10	44	12	6	46	7
54	39	Q4:	0	35	34	47	38	23	31	10	14	27
55	24	Q4:	2	22	41	33	16	35	4	8
56	23	Q3:	0	49	53	46
57	26	Q2:	0	40	21	28	2
58	18	Q1:	2	20	21	42	35	24
59	20	Q4:	0	2	6	47	12	35	51	9	49
60	16	Q0:	1	5	1
61	32	Q4:	3	13	56
62	35	Q0:	1	13	20	50	61	43	7	28	23	38
63	27	Q2:	1	29	13	27	58	50	32
64	39	Q3:	3	43	45	19	9	42
65	27	Q3:	3	28	37	17	46	30	59	61	26
66	16	Q2:	3	57	1	21	18	32	45
67	13	Q2:	1	50	21	51	66	45	10	24
68	13	Q0:	1	57	58	2	39	23	1	3	65	29	19
69	39	Q3:	2	52	60	65	51	20	21
70	37	Q3:	0	30	67	62	5	25
71	20	Q2:	3	16	33	60	46	18	21	14	5
72	15	Q3:	0	55	40	24	8	19	17
73	32	Q4:	0	35	8	57	40	2	16	18	26
74	35	Q4:	2	2	64	37	34
75	14	Q1:	0	36	64	71	14	42	45	5	33	30	34
76	37	Q1:	1	48	74	54	72	25	11	3
77	23	Q1:	2	34	12	44	76	10	5
78	32	Q4:	0	54	61	70	56	6	74	47	75	67
79	12	Q4:	3	16	54	58	66	59
80	10	Q3:	3	4	69	40	56	8	60	42	72
81	11	Q3:	3	30	22	49	13	64	40
82	24	Q2:	1	22	46	40	60	80	53
83	38	Q1:	0	46	12	64	49	29	65	19	35	67	72	15
84	30	Q3:	2	39	12	56	22	78	57	13	55
85	40	Q0:	1	77	54	61	49	50
86	14	Q0:	1	15	81	74	13	23	61	60	54	50	35	63	48	40	31	71	78
87	26	Q2:	3	44	72	39	24	33	75	37	70	54
88	20	Q1:	3	51	24	56	67	50	68	3	61	30	71	2	18	39
89	27	Q2:	1	62	53	26	14	23	69	63	47	40	87	28
90	37	Q1:	2	48	5	9	78	55	49	50	26	81	57
91	32	Q0:	3	71	9	27	79
92	29	Q0:	1	66	76	11	35	13	65	4	82	3
93	13	Q1:	3	30	58	81	79	16	38
94	26	Q4:	1	56	63	22	45	93	15	41	71	65	75	43	78	74	30	79
95	37	Q1:	1	85	70	27	84	1	63	54
96	30	Q4:	3	88	80	3	84	89	44	68	70
97	37	Q4:	2	35	61	27	95	31	50	34
98	36	Q3:	0	20	70	33	15
99	22	Q1:	3	2	12	82	81	21
100	18	Q4:	3	45	87	44	29	70	24	67	91	88	5	79	97	32
========================================================== 